CMD:
./solvers/bin/cadical --plain --no-reduce -t 1600 ./data/cnfs//bobtuint22neg/bobtuint22neg.82.cnf

c --- [ banner ] -------------------------------------------------------------
c 
c CaDiCaL SAT Solver
c Copyright (c) 2016-2024
c A. Biere, M. Fleury, N. Froleyks, K. Fazekas, F. Pollitt, T. Faller
c JKU Linz, University of Freiburg, TU Wien
c 
c Version 2.1.3 5296d3d2a9bf48c154ab2acb5e44625776d821bf
c g++ (Gentoo 12.3.1_p20230526 p2) 12.3.1 20230526 -Wall -Wextra -O3 -DNDEBUG
c Sat Aug 9 07:26:21 PDT 2025 Linux cedar2.int.cedar.computecanada.ca 5.14.0-362.24.2.el9_3.x86_64 x86_64
c 
c --- [ limit ] --------------------------------------------------------------
c 
c setting time limit to 1600 seconds real time (due to '-t 1600')
c 
c --- [ parsing input ] ------------------------------------------------------
c 
c reading DIMACS file from './data/cnfs//bobtuint22neg/bobtuint22neg.82.cnf'
c opening file to read './data/cnfs//bobtuint22neg/bobtuint22neg.82.cnf'
c found 'p cnf 180909 488750' header
c parsed 488750 clauses in 0.08 seconds process time
c 
c --- [ options ] ------------------------------------------------------------
c 
c   --compact=false                (different from default 'true')
c   --decompose=false              (different from default 'true')
c   --deduplicate=false            (different from default 'true')
c   --elim=false                   (different from default 'true')
c   --probe=false                  (different from default 'true')
c   --reduce=false                 (different from default 'true')
c   --subsume=false                (different from default 'true')
c   --ternary=false                (different from default 'true')
c   --transred=false               (different from default 'true')
c   --vivify=false                 (different from default 'true')
c 
c --- [ solving ] ------------------------------------------------------------
c 
c time measured in process time since initialization
c 
c  seconds  reductions  redundant  irredundant
c         MB    restarts       trail       variables
c          level   conflicts       glue          remaining
c 
c *  0.08 79  0 0   0    0    0  0% 0 476161 174348 96%
c {  0.08 80  0 0   0    0    0  0% 0 476161 174348 96%
c i  0.14 81 94 0   3  209  203 17% 2 476161 174293 96%
c i  0.15 81 106 0  15  324  303 14% 2 476161 174287 96%
c i  0.15 81 105 0  16  333  310 14% 2 476161 174230 96%
c i  0.16 81 100 0  27  487  460 12% 2 476161 174226 96%
c i  0.16 81 100 0  27  488  460 12% 2 476161 174220 96%
c i  0.16 81 99 0  27  495  465 12% 2 476161 174216 96%
c i  0.16 81 98 0  27  499  467 12% 2 476161 174135 96%
c i  0.17 81 106 0  31  635  586 13% 2 476161 174110 96%
c i  0.18 81 104 0  31  712  655 13% 2 476161 174105 96%
c i  0.18 81 104 0  31  716  657 13% 2 476161 173992 96%
c i  0.18 81 104 0  34  780  719 14% 2 476161 173949 96%
c i  0.18 81 103 0  35  783  720 14% 2 476161 173907 96%
c i  0.20 81 95 0  57  878  802 13% 2 476161 173885 96%
c }  0.22 81 90 0  83 1000  920 12% 2 476161 173885 96%
c [  0.22 81  0 0  83 1000  920  0% 0 476161 173885 96%
c O  0.22 81 461 0  83 1002  921  6% 1 476161 173885 96%
c i  0.22 81 461 0  83 1002  921  6% 1 476161 173884 96%
c i  0.22 81 466 0  83 1003  921  6% 1 476161 173883 96%
c 
c  seconds   reductions  redundant  irredundant
c         MB     restarts       trail       variables
c           level   conflicts       glue          remaining
c 
c i  0.22 81 534 0  83 1005  922  6% 1 476161 173882 96%
c i  0.22 81 555 0  83 1006  922  6% 1 476161 173881 96%
c i  0.23 81 620 0  83 1008  923  7% 1 476161 173880 96%
c i  0.23 81 644 0  83 1009  923  7% 1 476161 173879 96%
c i  0.23 81 708 0  83 1011  924  8% 1 476161 173878 96%
c i  0.23 81 734 0  83 1012  924  8% 0 476161 173877 96%
c i  0.23 81 797 0  83 1014  925  8% 0 476161 173876 96%
c i  0.23 81 824 0  83 1015  925  8% 0 476161 173875 96%
c i  0.23 81 886 0  83 1017  926  9% 0 476161 173874 96%
c i  0.23 81 914 0  83 1018  926  9% 0 476161 173873 96%
c i  0.23 81 976 0  83 1020  927  9% 0 476161 173872 96%
c i  0.23 81 1004 0  83 1021  927  9% 0 476161 173871 96%
c i  0.27 83 5638 0  83 1141 1043 40% 1 476161 173530 96%
c i  0.28 83 6168 0  83 1171 1068 44% 1 476161 173488 96%
c i  0.28 83 6201 0  83 1175 1069 44% 1 476161 173411 96%
c i  0.28 83 6210 0  83 1176 1069 44% 1 476161 173354 96%
c i  0.28 83 6244 0  83 1181 1072 45% 1 476161 173342 96%
c i  0.28 83 6341 0  83 1194 1080 45% 2 476161 173223 96%
c i  0.28 83 6470 0  83 1232 1112 46% 2 476161 173218 96%
c i  0.28 83 6488 0  83 1240 1119 47% 2 476161 173190 96%
c 
c  seconds    reductions  redundant  irredundant
c         MB      restarts       trail       variables
c           level    conflicts       glue          remaining
c 
c i  0.28 83 6493 0  83 1248 1125 47% 2 476161 173102 96%
c i  0.28 83 6487 0  83 1255 1130 47% 2 476161 173091 96%
c i  0.28 83 6482 0  83 1260 1131 47% 2 476161 173087 96%
c i  0.28 83 6478 0  83 1264 1134 47% 2 476161 173044 96%
c i  0.29 83 6470 0  83 1271 1140 47% 2 476161 172989 96%
c i  0.29 83 6297 0  83 1315 1180 46% 2 476161 172947 96%
c i  0.29 83 6221 0  83 1328 1189 45% 2 476161 172865 96%
c i  0.29 83 6215 0  83 1329 1189 45% 2 476161 172854 96%
c i  0.29 83 6141 0  83 1342 1200 44% 2 476161 172806 96%
c i  0.29 83 6128 0  83 1344 1201 44% 2 476161 172773 96%
c i  0.29 83 5970 0  83 1367 1221 43% 2 476161 172690 95%
c i  0.29 83 5947 0  83 1370 1223 43% 2 476161 172634 95%
c i  0.30 83 5827 0  83 1384 1232 43% 2 476161 170727 94%
c i  0.30 83 5748 0  83 1393 1238 42% 2 476161 169951 94%
c i  0.30 83 5570 0  83 1412 1255 41% 3 476161 169916 94%
c i  0.30 83 5521 0  83 1417 1257 41% 3 476161 169339 94%
c i  0.30 83 5412 0  83 1427 1263 40% 3 476161 169235 94%
c i  0.30 83 5309 0  83 1436 1268 39% 3 476161 167479 93%
c i  0.30 83 5284 0  83 1438 1269 39% 3 476161 167478 93%
c ]  0.30 83 5260 0  83 1441 1270 39% 3 476161 166688 92%
c 
c  seconds    reductions  redundant  irredundant
c         MB      restarts       trail       variables
c           level    conflicts       glue          remaining
c 
c 0  0.30 83 5260 0  83 1441 1270 39% 3 476161 166688 92%
c 
c --- [ result ] -------------------------------------------------------------
c 
s UNSATISFIABLE
c 
c --- [ run-time profiling ] -------------------------------------------------
c 
c process time taken by individual solving procedures
c (percentage relative to process time for solving)
c 
c         0.23   99.94% search
c         0.14   62.82% unstable
c         0.08   36.42% stable
c         0.08   33.16% parse
c         0.00    0.65% lucky
c         0.00    0.00% simplify
c   =================================
c         0.23   74.96% solve
c 
c last line shows process time for solving
c (percentage relative to total process time)
c 
c --- [ statistics ] ---------------------------------------------------------
c 
c chronological:               765        53.09 %  of conflicts
c conflicts:                  1441      6352.38    per second
c decisions:                 22020     97071.11    per second
c fixed:                     14131         7.81 %  of all variables
c learned:                    1375        95.42 %  per conflict
c learned_lits:               9076       100.00 %  learned literals
c minimized:                     0         0.00 %  learned literals
c shrunken:                    751         8.27 %  learned literals
c minishrunken:                442         4.87 %  learned literals
c otfs:                         21         1.46 %  of conflict
c propagations:            2399422        10.58 M  per second
c rephased:                      1      1441.00    interval
c restarts:                     83        17.36    interval
c stabilizing:                   1        30.60 %  of conflicts
c subsumed:                     43         0.01 %  of all clauses
c strengthened:                 21         0.00 %  of all clauses
c 
c seconds are measured in process time for solving
c 
c --- [ resources ] ----------------------------------------------------------
c 
c total process time since initialization:         0.30    seconds
c total real time since initialization:            0.33    seconds
c maximum resident set size of process:           81.00    MB
c 
c --- [ shutting down ] ------------------------------------------------------
c 
c exit 20
